! PBE0 D4 def2-TZVP TightSCF TightOpt Opt Freq SMD(Water) PAL8
%maxcore 3000
%scf MaxIter 400 end
%geom MaxIter 300 end
* xyzfile CHARGE MULTIPLICITY state.xyz
