# First ORCA input
# Closed-shell neutral water
! HF def2-SVP TightSCF

%pal
  nprocs 1
end

%scf
  MaxIter 200
end

* xyz 0 1
O   0.000000  0.000000  0.000000
H   0.758602  0.000000  0.504284
H  -0.758602  0.000000  0.504284
*
